output_file = "7-1-C-100-1.00-126.csv";

n_days = 100;
n_shelf_types = 2;
n_crops = 1;

num_shelves = [
    5, 2
];


crop_shelf_type_compatible = [
    [1, 1]
];

crop_growth_days = [15];

n_configurations = 2;

crop_growth_day_config = [
    [1, 1, 1, 2, 2, 2, 2, 2, 2, 2, 2, 2, 2, 2, 2]
];

capacity = [
    [12, 12],
[12, 12]
];

demand = [
    [0, 0, 0, 0, 0, 0, 0, 0, 0, 0, 0, 0, 0, 0, 0, 0, 18, 0, 0, 0, 0, 13, 10, 0, 0, 0, 0, 0, 0, 8, 0, 22, 0, 0, 0, 9, 0, 16, 26, 0, 18, 9, 7, 0, 11, 0, 25, 15, 5, 0, 0, 0, 0, 0, 20, 0, 8, 8, 0, 0, 27, 0, 0, 11, 6, 10, 23, 19, 18, 0, 9, 0, 0, 0, 0, 0, 0, 13, 0, 0, 21, 26, 15, 8, 14, 0, 0, 0, 0, 0, 6, 0, 0, 0, 0, 34, 24, 9, 9, 0]
];


missed_demand_penalty = [
    [0, 0, 0, 0, 0, 0, 0, 0, 0, 0, 0, 0, 0, 0, 0, 0, 1, 0, 0, 0, 0, 1, 1, 0, 0, 0, 0, 0, 0, 1, 0, 1, 0, 0, 0, 1, 0, 1, 1, 0, 1, 1, 1, 0, 1, 0, 1, 1, 1, 0, 0, 0, 0, 0, 1, 0, 1, 1, 0, 0, 1, 0, 0, 1, 1, 1, 1, 1, 1, 0, 1, 0, 0, 0, 0, 0, 0, 1, 0, 0, 1, 1, 1, 1, 1, 0, 0, 0, 0, 0, 1, 0, 0, 0, 0, 1, 1, 1, 1, 0]
];